1 1 -2 0
1 1 -3 0
1 1 -4 0
1 -1 -5 0
1 1 6 0
1 2 7 0
1 2 8 0
1 -2 -3 0
1 -2 -1 0
1 -2 -4 0
1 -2 -6 0
1 -9 10 0
1 9 -11 0
1 9 12 0
1 -9 -8 0
1 -9 -3 0
1 9 -13 0
1 9 14 0
1 -9 -15 0
1 -12 -10 0
1 -12 11 0
1 12 -8 0
1 12 13 0
1 12 9 0
1 -12 -4 0
1 3 16 0
1 3 -17 0
1 -3 -12 0
1 3 18 0
1 -3 19 0
1 3 -20 0
1 3 -1 0
1 3 6 0
1 -6 -16 0
1 -6 -17 0
1 -6 21 0
1 -6 -12 0
1 -6 -3 0
1 -6 -19 0
1 6 20 0
1 6 22 0
1 -8 -16 0
1 -8 -12 0
1 8 -2 0
1 8 23 0
1 8 -19 0
1 -8 24 0
1 -8 25 0
1 -8 9 0
1 8 1 0
1 4 16 0
1 -4 26 0
1 4 27 0
1 4 12 0
1 -4 2 0
1 4 -8 0
1 -4 19 0
1 4 -24 0
1 4 -9 0
1 4 28 0
1 -22 -11 0
1 22 -13 0
1 -22 -14 0
1 22 25 0
1 22 6 0
1 -21 -10 0
1 21 27 0
1 -21 -3 0
1 21 -13 0
1 -21 -14 0
1 21 -22 0
1 -21 6 0
1 20 -17 0
1 -20 -29 0
1 -20 3 0
1 20 14 0
1 20 30 0
1 20 31 0
1 20 -6 0
1 17 -10 0
1 17 26 0
1 -17 32 0
1 -17 3 0
1 17 -13 0
1 17 -14 0
1 17 20 0
1 17 30 0
1 -14 33 0
1 14 11 0
1 14 -17 0
1 14 -21 0
1 14 12 0
1 -14 34 0
1 -14 35 0
1 -14 -36 0
1 14 -37 0
1 14 20 0
1 -14 -9 0
1 11 33 0
1 11 38 0
1 11 -17 0
1 -11 21 0
1 11 -12 0
1 11 -34 0
1 -11 -36 0
1 -11 14 0
1 11 20 0
1 11 -22 0
1 -11 -9 0
1 11 -39 0
1 13 10 0
1 13 -40 0
1 -13 16 0
1 -13 17 0
1 13 21 0
1 13 12 0
1 -13 34 0
1 -13 -41 0
1 13 42 0
1 -13 -19 0
1 -13 -20 0
1 13 22 0
1 -13 -9 0
1 -13 -39 0
1 -10 40 0
1 10 -43 0
1 -10 21 0
1 10 12 0
1 -10 -34 0
1 10 -13 0
1 10 41 0
1 -10 19 0
1 -10 20 0
1 10 -22 0
1 10 -39 0
1 -36 -33 0
1 36 11 0
1 36 -29 0
1 -36 -32 0
1 36 -14 0
1 -36 -19 0
1 -36 30 0
1 36 31 0
1 -33 11 0
1 33 29 0
1 33 32 0
1 33 36 0
1 33 -14 0
1 33 -30 0
1 -33 31 0
1 35 44 0
1 35 11 0
1 -35 29 0
1 35 32 0
1 -35 41 0
1 -35 30 0
1 35 -31 0
1 -44 40 0
1 44 11 0
1 -44 35 0
1 44 -14 0
1 -44 -30 0
1 44 31 0
1 31 44 0
1 31 -17 0
1 -31 -32 0
1 31 45 0
1 -31 -35 0
1 -31 -36 0
1 31 20 0
1 -31 46 0
1 -31 -47 0
1 -32 -44 0
1 -32 33 0
1 32 -17 0
1 32 -48 0
1 -32 45 0
1 32 35 0
1 -32 20 0
1 -32 -31 0
1 -32 47 0
1 30 -44 0
1 30 33 0
1 30 45 0
1 30 49 0
1 30 -34 0
1 30 35 0
1 30 50 0
1 -30 -47 0
1 30 -51 0
1 30 -39 0
1 29 44 0
1 -29 33 0
1 29 17 0
1 29 -52 0
1 29 -45 0
1 -29 -49 0
1 29 35 0
1 -29 36 0
1 -29 -30 0
1 -29 47 0
1 29 51 0
1 -29 -39 0
1 -5 53 0
1 5 -7 0
1 -5 -54 0
1 5 -1 0
1 -5 -55 0
1 -7 53 0
1 -7 -2 0
1 -7 -56 0
1 7 54 0
1 7 -57 0
1 -7 -5 0
1 15 -53 0
1 15 58 0
1 15 -59 0
1 -15 60 0
1 15 -61 0
1 -15 -54 0
1 15 57 0
1 15 62 0
1 -61 -53 0
1 -61 -58 0
1 -61 -60 0
1 -61 -63 0
1 -61 -57 0
1 -61 -64 0
1 -61 -65 0
1 61 15 0
1 -58 66 0
1 -58 -26 0
1 58 67 0
1 58 27 0
1 58 -61 0
1 -58 7 0
1 -58 57 0
1 -58 68 0
1 58 -24 0
1 -58 25 0
1 58 15 0
1 -58 -5 0
1 57 58 0
1 57 66 0
1 -57 26 0
1 57 -27 0
1 57 61 0
1 57 -7 0
1 57 69 0
1 57 -68 0
1 -57 -24 0
1 57 -25 0
1 -57 -15 0
1 -57 -5 0
1 53 -66 0
1 53 70 0
1 53 71 0
1 53 -61 0
1 53 7 0
1 -53 -54 0
1 53 -68 0
1 -53 72 0
1 -53 -73 0
1 53 -15 0
1 53 -5 0
1 -54 -53 0
1 -54 66 0
1 54 71 0
1 54 -74 0
1 54 68 0
1 -54 -72 0
1 -54 73 0
1 54 15 0
1 54 5 0
1 25 59 0
1 25 -27 0
1 -25 -60 0
1 -25 -57 0
1 25 -65 0
1 25 -22 0
1 -25 -73 0
1 27 -58 0
1 27 -59 0
1 27 21 0
1 27 -8 0
1 -27 -65 0
1 -27 -25 0
1 -27 4 0
1 24 -59 0
1 -24 60 0
1 24 -75 0
1 24 -76 0
1 -24 -8 0
1 -24 -57 0
1 -24 65 0
1 -24 72 0
1 24 -77 0
1 24 78 0
1 26 -65 0
1 26 58 0
1 -26 -17 0
1 -26 60 0
1 -26 75 0
1 26 -76 0
1 26 8 0
1 -26 57 0
1 26 64 0
1 26 -77 0
1 -26 4 0
1 -60 -79 0
1 -60 -65 0
1 60 40 0
1 -60 -16 0
1 60 26 0
1 -60 27 0
1 60 -80 0
1 60 61 0
1 60 81 0
1 -60 -41 0
1 -60 -19 0
1 60 24 0
1 60 -25 0
1 -60 15 0
1 -65 -40 0
1 65 -16 0
1 -65 -26 0
1 65 -27 0
1 65 60 0
1 -65 61 0
1 -65 41 0
1 65 -19 0
1 -59 79 0
1 59 82 0
1 59 66 0
1 -59 -26 0
1 -59 83 0
1 -59 27 0
1 59 84 0
1 -59 -64 0
1 -59 68 0
1 -59 -24 0
1 59 -25 0
1 64 79 0
1 -64 82 0
1 -64 66 0
1 64 26 0
1 64 59 0
1 64 -27 0
1 64 61 0
1 -64 81 0
1 64 -68 0
1 -64 -24 0
1 64 -25 0
1 19 10 0
1 19 -16 0
1 19 -75 0
1 19 -76 0
1 -19 -8 0
1 -19 3 0
1 19 -13 0
1 19 -36 0
1 -19 -65 0
1 19 -78 0
1 19 6 0
1 -16 -10 0
1 16 66 0
1 -16 -75 0
1 16 -76 0
1 16 -8 0
1 16 -13 0
1 16 19 0
1 -16 78 0
1 -16 -4 0
1 -16 6 0
1 41 85 0
1 41 10 0
1 41 -40 0
1 41 60 0
1 41 18 0
1 -41 -13 0
1 -41 -35 0
1 41 84 0
1 -41 -65 0
1 41 -77 0
1 41 78 0
1 -41 -28 0
1 -40 -85 0
1 -40 44 0
1 -40 -10 0
1 40 82 0
1 -40 -75 0
1 -40 -76 0
1 -40 23 0
1 -40 -41 0
1 40 -65 0
1 40 77 0
1 40 78 0
1 -76 -40 0
1 -76 16 0
1 76 -86 0
1 -76 87 0
1 -76 -34 0
1 -76 41 0
1 -76 19 0
1 76 -24 0
1 -76 -78 0
1 76 88 0
1 -76 51 0
1 76 -39 0
1 -78 40 0
1 78 16 0
1 -78 -26 0
1 -78 -76 0
1 -78 -86 0
1 78 49 0
1 78 34 0
1 78 89 0
1 78 -88 0
1 78 -51 0
1 75 79 0
1 75 26 0
1 75 90 0
1 75 -86 0
1 -75 -91 0
1 75 81 0
1 -75 -41 0
1 -75 -19 0
1 75 -24 0
1 75 77 0
1 75 88 0
1 75 92 0
1 -77 -79 0
1 -77 40 0
1 77 16 0
1 77 -26 0
1 77 75 0
1 77 -86 0
1 77 -81 0
1 -77 -41 0
1 77 19 0
1 -77 -24 0
1 -77 93 0
1 77 92 0
1 34 -85 0
1 34 10 0
1 34 -23 0
1 -34 -81 0
1 -34 -13 0
1 -34 18 0
1 34 14 0
1 -34 30 0
1 -34 78 0
1 34 39 0
1 39 -79 0
1 39 -10 0
1 -39 -85 0
1 -39 -11 0
1 -39 -29 0
1 39 -76 0
1 -39 -23 0
1 39 -34 0
1 -39 13 0
1 -39 -14 0
1 39 -30 0
1 39 28 0
1 49 -43 0
1 -49 -38 0
1 49 29 0
1 49 76 0
1 49 -91 0
1 49 23 0
1 49 -18 0
1 49 -37 0
1 -49 30 0
1 49 -51 0
1 49 28 0
1 51 -85 0
1 51 43 0
1 51 -38 0
1 -51 76 0
1 51 49 0
1 51 -23 0
1 -51 18 0
1 -51 -42 0
1 -51 37 0
1 -51 -30 0
1 -51 28 0
1 51 78 0
1 -51 92 0
1 18 85 0
1 18 -40 0
1 18 94 0
1 18 95 0
1 18 45 0
1 18 -49 0
1 -18 34 0
1 -18 3 0
1 -18 96 0
1 18 41 0
1 18 -97 0
1 18 -98 0
1 -18 47 0
1 18 51 0
1 -85 -99 0
1 85 -40 0
1 -85 94 0
1 -85 95 0
1 -85 -45 0
1 85 49 0
1 85 -34 0
1 -85 -18 0
1 85 41 0
1 85 6 0
1 85 -97 0
1 -85 -98 0
1 85 47 0
1 -85 -51 0
1 85 -39 0
1 -23 -100 0
1 -23 49 0
1 -23 8 0
1 23 -34 0
1 -23 -101 0
1 23 -41 0
1 -23 97 0
1 -23 102 0
1 23 88 0
1 -23 -51 0
1 -23 -39 0
1 28 40 0
1 -28 94 0
1 -28 -86 0
1 28 -49 0
1 28 23 0
1 -28 -97 0
1 28 102 0
1 28 88 0
1 28 51 0
1 28 103 0
1 28 -39 0
1 -45 -85 0
1 -45 43 0
1 -45 -29 0
1 -45 38 0
1 45 -32 0
1 45 86 0
1 -45 -18 0
1 -45 42 0
1 -45 37 0
1 45 -30 0
1 45 -31 0
1 -45 -47 0
1 47 -85 0
1 47 -43 0
1 -47 -38 0
1 47 -29 0
1 -47 -32 0
1 47 45 0
1 47 -18 0
1 -47 -42 0
1 -47 -37 0
1 47 30 0
1 -47 88 0
1 95 -85 0
1 -95 43 0
1 -95 -38 0
1 -95 52 0
1 -95 98 0
1 -95 48 0
1 -95 100 0
1 -95 -18 0
1 -95 42 0
1 -95 -37 0
1 -95 46 0
1 -98 -85 0
1 -98 52 0
1 98 48 0
1 98 -95 0
1 98 -18 0
1 -98 -42 0
1 98 50 0
1 -98 -46 0
1 98 -102 0
1 -37 -104 0
1 37 -38 0
1 37 105 0
1 -37 -95 0
1 37 45 0
1 37 49 0
1 -37 -106 0
1 -37 -14 0
1 -37 107 0
1 -37 -108 0
1 37 109 0
1 38 -11 0
1 -38 104 0
1 -38 110 0
1 38 -111 0
1 38 105 0
1 38 95 0
1 -38 -45 0
1 38 -49 0
1 -38 -106 0
1 -38 -107 0
1 38 -37 0
1 38 -109 0
1 -38 -98 0
1 -38 47 0
1 38 -51 0
1 42 43 0
1 -42 -104 0
1 42 112 0
1 -42 94 0
1 -42 95 0
1 -42 45 0
1 -42 49 0
1 42 13 0
1 42 113 0
1 -42 97 0
1 42 98 0
1 42 -47 0
1 43 10 0
1 43 -114 0
1 43 112 0
1 -43 -94 0
1 43 95 0
1 -43 45 0
1 -43 106 0
1 43 -42 0
1 -43 -115 0
1 -43 -97 0
1 -43 47 0
1 -43 -51 0
1 105 -52 0
1 -105 -48 0
1 -105 37 0
1 -105 46 0
1 -109 -38 0
1 -109 -52 0
1 -109 37 0
1 -109 -50 0
1 109 46 0
1 -111 38 0
1 -111 -52 0
1 -111 -112 0
1 -111 -37 0
1 -111 -50 0
1 -107 38 0
1 107 -48 0
1 107 -37 0
1 107 115 0
1 107 46 0
1 -46 -116 0
1 46 111 0
1 -46 105 0
1 -46 -48 0
1 -46 95 0
1 46 -117 0
1 46 107 0
1 -46 -118 0
1 48 111 0
1 48 95 0
1 48 117 0
1 48 -107 0
1 48 109 0
1 -48 46 0
1 50 116 0
1 50 -119 0
1 -50 104 0
1 50 111 0
1 50 52 0
1 -50 105 0
1 50 95 0
1 50 117 0
1 50 106 0
1 -50 -107 0
1 50 30 0
1 -50 -109 0
1 50 120 0
1 50 -98 0
1 52 -119 0
1 -52 -104 0
1 52 111 0
1 52 -105 0
1 -52 -95 0
1 52 -117 0
1 -52 121 0
1 52 107 0
1 52 -109 0
1 -52 98 0
1 -55 -122 0
1 55 -123 0
1 -55 56 0
1 -56 122 0
1 56 -7 0
1 -56 124 0
1 56 125 0
1 -56 55 0
1 62 122 0
1 -62 126 0
1 62 63 0
1 62 127 0
1 62 -125 0
1 62 128 0
1 -62 -15 0
1 -62 -129 0
1 -63 122 0
1 -63 123 0
1 63 126 0
1 -63 -61 0
1 63 127 0
1 -63 124 0
1 63 -129 0
1 -63 -125 0
1 63 128 0
1 63 -62 0
1 -125 70 0
1 -125 -123 0
1 -125 -71 0
1 125 63 0
1 125 72 0
1 125 130 0
1 -125 -73 0
1 125 -55 0
1 -123 -125 0
1 123 70 0
1 123 131 0
1 -123 71 0
1 -123 -63 0
1 -123 -56 0
1 -123 72 0
1 123 62 0
1 -123 55 0
1 124 132 0
1 124 -122 0
1 -124 63 0
1 124 56 0
1 -124 62 0
1 -122 -133 0
1 122 -63 0
1 -122 -56 0
1 122 -124 0
1 -122 -55 0
1 -73 53 0
1 73 -123 0
1 73 71 0
1 73 -126 0
1 -73 -127 0
1 73 125 0
1 73 -128 0
1 73 129 0
1 -71 53 0
1 -71 -123 0
1 71 27 0
1 71 -126 0
1 -71 -54 0
1 -71 -125 0
1 -71 -73 0
1 -71 -129 0
1 72 -134 0
1 -72 -53 0
1 72 70 0
1 -72 -123 0
1 72 -126 0
1 -72 135 0
1 -72 -54 0
1 -72 -24 0
1 -72 -128 0
1 -72 129 0
1 -72 136 0
1 70 -134 0
1 70 125 0
1 -70 -26 0
1 70 -127 0
1 -70 135 0
1 70 54 0
1 70 -72 0
1 -70 128 0
1 129 -137 0
1 129 -82 0
1 129 -66 0
1 -129 -71 0
1 -129 63 0
1 -129 138 0
1 129 84 0
1 -129 72 0
1 129 73 0
1 129 -62 0
1 -129 -139 0
1 127 137 0
1 127 -82 0
1 127 66 0
1 127 70 0
1 127 -71 0
1 127 63 0
1 127 -138 0
1 127 84 0
1 -127 -68 0
1 -127 129 0
1 -127 -72 0
1 128 137 0
1 -128 70 0
1 128 71 0
1 -128 -126 0
1 -128 -63 0
1 -128 138 0
1 128 -72 0
1 -128 73 0
1 128 140 0
1 -128 62 0
1 -126 -137 0
1 126 -71 0
1 126 -141 0
1 -126 -63 0
1 126 128 0
1 -126 -138 0
1 126 73 0
1 -126 -62 0
1 -68 -134 0
1 -68 -53 0
1 68 -58 0
1 -68 -66 0
1 -68 59 0
1 -68 127 0
1 68 142 0
1 68 135 0
1 -68 54 0
1 -68 -57 0
1 68 -19 0
1 68 -129 0
1 -68 136 0
1 -66 134 0
1 66 -53 0
1 66 -16 0
1 66 59 0
1 -66 127 0
1 66 -142 0
1 -66 135 0
1 -66 54 0
1 66 -57 0
1 66 68 0
1 -66 129 0
1 84 -134 0
1 -84 -82 0
1 84 143 0
1 84 59 0
1 -84 -127 0
1 84 135 0
1 84 -41 0
1 -84 -129 0
1 84 -136 0
1 -82 -40 0
1 -82 67 0
1 -82 59 0
1 82 127 0
1 82 -142 0
1 82 -135 0
1 82 -74 0
1 82 -84 0
1 82 69 0
1 82 136 0
1 -134 144 0
1 -134 -82 0
1 -134 66 0
1 134 70 0
1 134 91 0
1 -134 -135 0
1 134 81 0
1 134 -84 0
1 -134 -68 0
1 -134 72 0
1 -134 -145 0
1 -134 -92 0
1 -135 -79 0
1 -135 134 0
1 -135 82 0
1 -135 -66 0
1 -135 -146 0
1 135 -147 0
1 -135 -81 0
1 135 -84 0
1 135 68 0
1 -135 -72 0
1 -135 -145 0
1 135 -92 0
1 -136 -82 0
1 136 66 0
1 -136 70 0
1 -136 142 0
1 -136 -146 0
1 136 148 0
1 -136 84 0
1 -136 -72 0
1 -136 -145 0
1 -136 -149 0
1 -142 -137 0
1 142 82 0
1 142 66 0
1 -142 -146 0
1 -142 150 0
1 -142 -138 0
1 142 -84 0
1 142 -145 0
1 142 -136 0
1 -142 149 0
1 -81 79 0
1 -81 134 0
1 81 -143 0
1 -81 67 0
1 81 -59 0
1 -81 60 0
1 -81 -75 0
1 81 -135 0
1 -81 34 0
1 81 -138 0
1 -81 -74 0
1 81 -69 0
1 -81 -64 0
1 -79 134 0
1 79 143 0
1 79 67 0
1 -79 -59 0
1 79 60 0
1 -79 75 0
1 79 135 0
1 79 -81 0
1 -79 -74 0
1 79 -69 0
1 79 -65 0
1 -79 -77 0
1 79 -39 0
1 -91 -134 0
1 -91 -143 0
1 91 -67 0
1 91 -80 0
1 -91 -135 0
1 91 148 0
1 91 -74 0
1 -91 69 0
1 -91 151 0
1 91 152 0
1 -91 -77 0
1 -91 -92 0
1 92 -134 0
1 -92 -143 0
1 -92 67 0
1 -92 -83 0
1 92 -80 0
1 -92 75 0
1 92 -91 0
1 -92 135 0
1 -92 74 0
1 92 151 0
1 -92 -152 0
1 92 -77 0
1 -92 51 0
1 92 149 0
1 -67 79 0
1 67 -58 0
1 67 153 0
1 -67 100 0
1 -67 -91 0
1 -67 -81 0
1 67 -84 0
1 -67 -69 0
1 67 -154 0
1 -67 -102 0
1 67 -88 0
1 -69 -79 0
1 69 82 0
1 69 -67 0
1 69 -155 0
1 69 86 0
1 69 91 0
1 69 -81 0
1 -69 -57 0
1 -69 84 0
1 69 154 0
1 -69 102 0
1 69 -88 0
1 143 79 0
1 -143 -53 0
1 143 82 0
1 143 156 0
1 143 -155 0
1 -143 157 0
1 143 -146 0
1 -143 -91 0
1 -143 81 0
1 -143 -74 0
1 -143 154 0
1 143 -158 0
1 -143 -145 0
1 143 92 0
1 -74 79 0
1 -74 -82 0
1 -74 -143 0
1 74 155 0
1 -74 157 0
1 74 146 0
1 74 81 0
1 -74 54 0
1 -74 -159 0
1 74 154 0
1 -74 158 0
1 -74 -145 0
1 -86 -67 0
1 -86 -83 0
1 86 -80 0
1 86 -75 0
1 86 -45 0
1 -86 76 0
1 -86 -23 0
1 -86 -69 0
1 86 151 0
1 86 152 0
1 86 -77 0
1 86 78 0
1 -86 -88 0
1 -86 -28 0
1 -88 67 0
1 -88 83 0
1 -88 80 0
1 88 -75 0
1 88 78 0
1 -88 76 0
1 88 86 0
1 88 23 0
1 -88 -152 0
1 88 -77 0
1 -88 -145 0
1 -88 -28 0
1 100 67 0
1 -100 -93 0
1 100 -95 0
1 -100 90 0
1 -100 157 0
1 -100 69 0
1 100 152 0
1 100 102 0
1 -102 67 0
1 -102 -83 0
1 102 -80 0
1 102 100 0
1 102 90 0
1 -102 87 0
1 102 23 0
1 102 -69 0
1 -102 151 0
1 102 152 0
1 -102 98 0
1 -102 93 0
1 -102 89 0
1 80 152 0
1 80 160 0
1 80 112 0
1 80 94 0
1 80 -86 0
1 80 91 0
1 -80 -161 0
1 -80 -97 0
1 -80 -102 0
1 -80 -92 0
1 152 -160 0
1 -152 -112 0
1 152 -94 0
1 152 -80 0
1 152 100 0
1 152 -86 0
1 -152 -161 0
1 152 115 0
1 -152 -65 0
1 -152 97 0
1 -152 -162 0
1 152 -102 0
1 152 88 0
1 152 92 0
1 -83 -160 0
1 83 59 0
1 -83 -163 0
1 83 -164 0
1 83 -155 0
1 83 -100 0
1 83 86 0
1 -83 151 0
1 -83 -154 0
1 83 88 0
1 -83 92 0
1 -151 160 0
1 151 -165 0
1 -151 83 0
1 151 163 0
1 151 -155 0
1 -151 -100 0
1 -151 -86 0
1 -151 91 0
1 151 161 0
1 -151 166 0
1 -151 -154 0
1 -151 -88 0
1 -151 -92 0
1 94 85 0
1 -94 43 0
1 -94 152 0
1 94 105 0
1 -94 -80 0
1 94 155 0
1 94 -87 0
1 94 23 0
1 94 -42 0
1 -94 -97 0
1 -94 -93 0
1 -94 -89 0
1 97 85 0
1 97 43 0
1 97 94 0
1 -97 -80 0
1 -97 -90 0
1 -97 -87 0
1 -97 -23 0
1 -97 18 0
1 97 -42 0
1 -97 109 0
1 -97 -89 0
1 -112 99 0
1 112 -43 0
1 112 -111 0
1 112 -163 0
1 112 80 0
1 -112 -90 0
1 112 87 0
1 -112 101 0
1 112 -42 0
1 112 -115 0
1 112 152 0
1 -112 -93 0
1 112 -89 0
1 115 80 0
1 115 -87 0
1 115 -101 0
1 -115 -96 0
1 -115 42 0
1 -115 107 0
1 115 -152 0
1 115 -89 0
1 115 -103 0
1 87 167 0
1 -87 -119 0
1 87 112 0
1 -87 -94 0
1 87 76 0
1 -87 168 0
1 -87 121 0
1 -87 106 0
1 87 -115 0
1 -87 -102 0
1 -87 -89 0
1 -89 167 0
1 89 -104 0
1 -89 112 0
1 -89 94 0
1 -89 -87 0
1 89 -169 0
1 -89 -121 0
1 -89 106 0
1 89 -115 0
1 89 -97 0
1 -89 -102 0
1 -89 -78 0
1 -90 -167 0
1 90 170 0
1 -90 -160 0
1 90 -112 0
1 -90 -93 0
1 -90 94 0
1 90 75 0
1 90 100 0
1 90 -171 0
1 90 -172 0
1 90 161 0
1 -90 -115 0
1 -90 97 0
1 90 102 0
1 93 -170 0
1 -93 112 0
1 -93 94 0
1 93 -100 0
1 93 -90 0
1 93 -169 0
1 93 -172 0
1 -93 -161 0
1 93 115 0
1 -93 -97 0
1 93 -77 0
1 93 102 0
1 93 173 0
1 104 -99 0
1 104 -43 0
1 104 38 0
1 -104 160 0
1 104 87 0
1 104 -101 0
1 -104 -96 0
1 104 42 0
1 -104 -37 0
1 -104 -50 0
1 104 89 0
1 -104 103 0
1 -106 -99 0
1 -106 -104 0
1 -106 -38 0
1 -106 -87 0
1 -106 -101 0
1 106 -96 0
1 -106 42 0
1 106 -161 0
1 106 -37 0
1 106 -50 0
1 -106 -89 0
1 -106 -103 0
1 -119 99 0
1 -119 170 0
1 119 -114 0
1 -119 110 0
1 -119 52 0
1 -119 87 0
1 119 101 0
1 -119 -121 0
1 119 -113 0
1 -119 -108 0
1 119 50 0
1 -119 89 0
1 119 103 0
1 -121 -99 0
1 -121 119 0
1 121 114 0
1 -121 -52 0
1 121 -87 0
1 121 -101 0
1 121 -172 0
1 121 96 0
1 -121 -113 0
1 -121 -108 0
1 121 50 0
1 121 89 0
1 121 103 0
1 96 116 0
1 96 99 0
1 -96 112 0
1 96 174 0
1 96 117 0
1 96 121 0
1 -96 -18 0
1 96 -106 0
1 -96 175 0
1 99 116 0
1 -99 -85 0
1 -99 -119 0
1 99 112 0
1 99 -174 0
1 99 -117 0
1 99 121 0
1 99 -96 0
1 -99 106 0
1 99 -115 0
1 -99 175 0
1 -101 -119 0
1 101 -174 0
1 101 176 0
1 101 23 0
1 -101 169 0
1 101 121 0
1 -101 -106 0
1 101 -115 0
1 -101 -177 0
1 101 -103 0
1 -101 178 0
1 -103 167 0
1 103 -119 0
1 103 104 0
1 -103 112 0
1 103 -174 0
1 -103 -176 0
1 103 -169 0
1 -103 121 0
1 103 101 0
1 -103 -106 0
1 103 115 0
1 116 -167 0
1 116 99 0
1 -116 114 0
1 -116 110 0
1 -116 52 0
1 -116 -48 0
1 116 117 0
1 -116 -96 0
1 -116 113 0
1 -116 -108 0
1 -116 50 0
1 -116 46 0
1 -117 110 0
1 117 52 0
1 117 48 0
1 -117 169 0
1 117 96 0
1 -117 113 0
1 117 50 0
1 117 -46 0
1 175 -99 0
1 -175 -114 0
1 -175 110 0
1 -175 179 0
1 175 -96 0
1 -175 113 0
1 -175 -108 0
1 175 -120 0
1 -175 -118 0
1 175 -178 0
1 -179 -99 0
1 179 -114 0
1 179 -110 0
1 -179 -180 0
1 179 -181 0
1 179 -176 0
1 -179 -96 0
1 179 108 0
1 -179 118 0
1 179 -175 0
1 -108 -116 0
1 -108 -110 0
1 108 182 0
1 108 183 0
1 -108 -179 0
1 -108 117 0
1 -108 37 0
1 108 184 0
1 -108 175 0
1 -110 -116 0
1 -110 -119 0
1 -110 -38 0
1 -110 182 0
1 110 183 0
1 110 108 0
1 -110 185 0
1 -110 -175 0
1 -113 -116 0
1 -113 -119 0
1 113 114 0
1 113 186 0
1 113 -179 0
1 -113 117 0
1 -113 121 0
1 -113 177 0
1 113 -175 0
1 114 116 0
1 -114 -119 0
1 -114 43 0
1 114 -186 0
1 114 -179 0
1 -114 117 0
1 114 -121 0
1 -114 187 0
1 -114 177 0
1 -185 110 0
1 -185 180 0
1 -185 183 0
1 185 -120 0
1 185 118 0
1 185 177 0
1 183 -110 0
1 183 180 0
1 183 -181 0
1 183 174 0
1 -183 108 0
1 -183 120 0
1 183 -118 0
1 183 185 0
1 -184 -110 0
1 -184 180 0
1 -184 181 0
1 -184 108 0
1 -184 -120 0
1 184 -118 0
1 -182 -110 0
1 -182 180 0
1 -182 -181 0
1 -182 -108 0
1 -182 184 0
1 118 182 0
1 -118 181 0
1 118 -183 0
1 118 -46 0
1 -118 -184 0
1 118 175 0
1 181 -118 0
1 181 48 0
1 181 182 0
1 181 183 0
1 -181 -179 0
1 -181 -185 0
1 181 -175 0
1 -120 180 0
1 -120 182 0
1 -120 179 0
1 -120 -50 0
1 120 -184 0
1 -120 -185 0
1 -120 175 0
1 180 52 0
1 180 182 0
1 -180 -183 0
1 -180 -179 0
1 -180 -120 0
1 180 -184 0
1 -180 185 0
1 180 -175 0
1 -138 -133 0
1 -138 131 0
1 -138 -126 0
1 -138 127 0
1 -138 -142 0
1 -138 -132 0
1 138 -130 0
1 138 128 0
1 138 -129 0
1 -138 136 0
1 137 -79 0
1 137 133 0
1 137 131 0
1 137 127 0
1 -137 -142 0
1 137 -138 0
1 137 128 0
1 137 -129 0
1 137 -136 0
1 -148 -133 0
1 148 131 0
1 -148 141 0
1 -148 -188 0
1 -148 -142 0
1 -148 -91 0
1 148 132 0
1 148 -130 0
1 148 -140 0
1 148 -139 0
1 -148 -149 0
1 -149 133 0
1 -149 -131 0
1 -149 141 0
1 149 -188 0
1 149 -142 0
1 -149 -148 0
1 -149 -132 0
1 149 -130 0
1 149 -140 0
1 149 -136 0
1 -149 92 0
1 130 137 0
1 130 -131 0
1 -130 157 0
1 -130 146 0
1 130 189 0
1 -130 -148 0
1 130 -125 0
1 -130 -158 0
1 130 -145 0
1 -131 137 0
1 131 -123 0
1 131 190 0
1 -131 157 0
1 -131 146 0
1 -131 -148 0
1 -131 138 0
1 -131 130 0
1 -131 158 0
1 131 145 0
1 -131 -149 0
1 -132 137 0
1 -132 148 0
1 132 -138 0
1 132 -124 0
1 -132 -191 0
1 -132 -149 0
1 -133 -137 0
1 133 122 0
1 -133 192 0
1 133 148 0
1 133 138 0
1 133 -132 0
1 -133 149 0
1 -146 -134 0
1 146 131 0
1 146 -141 0
1 -146 -188 0
1 -146 86 0
1 -146 142 0
1 -146 -135 0
1 -146 74 0
1 -146 130 0
1 -146 -140 0
1 -146 139 0
1 146 145 0
1 -146 -136 0
1 -145 -134 0
1 145 136 0
1 -145 131 0
1 -145 -141 0
1 -145 -188 0
1 -145 142 0
1 -145 -135 0
1 -145 -74 0
1 -145 130 0
1 -157 -144 0
1 157 -141 0
1 -157 100 0
1 -157 188 0
1 157 -150 0
1 -157 147 0
1 157 -74 0
1 -157 -140 0
1 157 130 0
1 157 158 0
1 -157 139 0
1 157 -193 0
1 -158 144 0
1 -158 143 0
1 -158 -131 0
1 158 188 0
1 158 130 0
1 158 140 0
1 158 139 0
1 158 -193 0
1 139 -194 0
1 -139 -163 0
1 139 188 0
1 139 -146 0
1 139 -195 0
1 139 166 0
1 139 -154 0
1 139 158 0
1 -139 -129 0
1 -139 145 0
1 -139 149 0
1 -188 -163 0
1 188 157 0
1 -188 196 0
1 188 -146 0
1 188 148 0
1 188 195 0
1 -188 166 0
1 -188 154 0
1 188 -158 0
1 -188 -145 0
1 188 -149 0
1 140 -194 0
1 -140 -141 0
1 140 -128 0
1 -140 148 0
1 -140 158 0
1 -140 -197 0
1 -140 145 0
1 -140 -149 0
1 141 126 0
1 -141 -157 0
1 141 146 0
1 141 148 0
1 141 -140 0
1 -141 -145 0
1 -155 143 0
1 -155 -67 0
1 -155 83 0
1 -155 94 0
1 -155 -150 0
1 155 147 0
1 -155 -74 0
1 -155 69 0
1 155 -151 0
1 155 -154 0
1 155 -139 0
1 -154 144 0
1 -154 143 0
1 154 67 0
1 154 -83 0
1 -154 188 0
1 -154 150 0
1 154 147 0
1 154 74 0
1 154 -69 0
1 -154 151 0
1 -154 -97 0
1 163 144 0
1 -163 156 0
1 -163 153 0
1 163 -83 0
1 -163 -188 0
1 -163 -150 0
1 163 -147 0
1 163 -159 0
1 -163 198 0
1 -163 -151 0
1 -163 139 0
1 -163 -193 0
1 166 -144 0
1 -166 156 0
1 -166 153 0
1 -166 83 0
1 166 163 0
1 -166 -188 0
1 -166 150 0
1 166 -147 0
1 -166 -159 0
1 166 -198 0
1 166 -151 0
1 -166 115 0
1 166 139 0
1 -166 -193 0
1 144 134 0
1 144 199 0
1 -144 -170 0
1 -144 200 0
1 -144 160 0
1 -144 163 0
1 144 -155 0
1 144 157 0
1 -144 -201 0
1 -144 172 0
1 -144 -166 0
1 144 154 0
1 144 -158 0
1 147 144 0
1 147 199 0
1 147 160 0
1 147 163 0
1 -147 157 0
1 -147 135 0
1 147 172 0
1 -147 -202 0
1 -147 -161 0
1 147 -166 0
1 147 154 0
1 -193 203 0
1 193 -194 0
1 -193 -163 0
1 193 155 0
1 -193 -157 0
1 193 -150 0
1 -193 201 0
1 193 -204 0
1 -193 -195 0
1 193 -166 0
1 -193 -158 0
1 150 199 0
1 150 205 0
1 150 194 0
1 150 -155 0
1 -150 157 0
1 150 142 0
1 150 206 0
1 -150 -201 0
1 -150 204 0
1 -150 -195 0
1 150 166 0
1 150 -193 0
1 -160 144 0
1 -160 104 0
1 -160 -156 0
1 -160 -153 0
1 160 80 0
1 160 90 0
1 -160 147 0
1 160 198 0
1 160 151 0
1 -160 93 0
1 -161 -144 0
1 -161 -156 0
1 -161 -160 0
1 161 -153 0
1 -161 83 0
1 161 -80 0
1 -161 90 0
1 161 147 0
1 161 106 0
1 -161 -159 0
1 161 195 0
1 -161 151 0
1 161 -198 0
1 -161 -152 0
1 -161 93 0
1 170 -144 0
1 170 -119 0
1 170 205 0
1 170 -153 0
1 -170 164 0
1 170 -207 0
1 -170 -90 0
1 170 147 0
1 -170 -172 0
1 170 -159 0
1 -172 -170 0
1 172 -156 0
1 172 -164 0
1 -172 -147 0
1 -172 121 0
1 172 -204 0
1 -172 -198 0
1 172 162 0
1 153 -167 0
1 153 170 0
1 -153 -160 0
1 -153 -67 0
1 153 -163 0
1 153 208 0
1 -153 176 0
1 153 169 0
1 -153 172 0
1 153 -161 0
1 -153 -166 0
1 -153 -178 0
1 198 -170 0
1 -198 -160 0
1 -198 153 0
1 -198 -163 0
1 198 176 0
1 198 -169 0
1 -198 161 0
1 198 -69 0
1 198 178 0
1 156 209 0
1 156 -199 0
1 -156 170 0
1 156 143 0
1 -156 -160 0
1 -156 -163 0
1 156 -208 0
1 156 -210 0
1 -156 201 0
1 156 -172 0
1 -156 -159 0
1 -156 161 0
1 156 166 0
1 159 209 0
1 159 -199 0
1 -159 -170 0
1 -159 -156 0
1 -159 160 0
1 159 -163 0
1 159 -208 0
1 -159 -210 0
1 -159 172 0
1 159 74 0
1 159 -166 0
1 -167 -116 0
1 167 153 0
1 167 164 0
1 167 90 0
1 -167 169 0
1 167 101 0
1 167 198 0
1 -167 -165 0
1 167 162 0
1 167 -89 0
1 -169 -167 0
1 169 -153 0
1 -169 -164 0
1 -169 90 0
1 169 101 0
1 -169 201 0
1 169 -165 0
1 169 -162 0
1 169 -93 0
1 169 -89 0
1 169 -103 0
1 178 209 0
1 -178 153 0
1 178 -164 0
1 178 -207 0
1 -178 176 0
1 -178 -101 0
1 178 -198 0
1 178 -162 0
1 -178 -173 0
1 178 -211 0
1 178 175 0
1 178 -103 0
1 176 153 0
1 -176 164 0
1 176 -207 0
1 176 178 0
1 -176 171 0
1 176 -179 0
1 176 -168 0
1 176 -210 0
1 -176 198 0
1 176 -165 0
1 -176 162 0
1 176 211 0
1 -176 103 0
1 -207 170 0
1 207 -162 0
1 -207 -80 0
1 -207 186 0
1 -207 -174 0
1 207 -176 0
1 207 169 0
1 207 172 0
1 207 187 0
1 -162 167 0
1 162 -170 0
1 162 186 0
1 162 -207 0
1 162 174 0
1 162 176 0
1 162 -169 0
1 162 -172 0
1 -162 -152 0
1 162 -187 0
1 162 177 0
1 -162 178 0
1 164 -167 0
1 -164 -170 0
1 -164 -83 0
1 164 -212 0
1 164 208 0
1 -164 176 0
1 164 169 0
1 -164 213 0
1 -164 -178 0
1 165 -167 0
1 165 170 0
1 165 164 0
1 -165 208 0
1 165 176 0
1 -165 169 0
1 165 172 0
1 -165 151 0
1 165 -178 0
1 -177 99 0
1 177 -114 0
1 -177 207 0
1 177 -174 0
1 177 171 0
1 -177 168 0
1 177 -101 0
1 177 113 0
1 -177 -162 0
1 177 185 0
1 -177 -211 0
1 -177 -103 0
1 -174 99 0
1 -174 -114 0
1 174 207 0
1 174 171 0
1 -174 208 0
1 -174 101 0
1 -174 -96 0
1 -174 113 0
1 174 211 0
1 -174 162 0
1 -174 -103 0
1 -187 -114 0
1 187 207 0
1 187 -168 0
1 -187 113 0
1 187 162 0
1 -187 184 0
1 -187 173 0
1 -187 213 0
1 187 -211 0
1 -186 -182 0
1 -186 207 0
1 -186 212 0
1 -186 171 0
1 -186 -168 0
1 186 -113 0
1 186 -162 0
1 186 187 0
1 186 211 0
1 168 -174 0
1 -168 87 0
1 168 176 0
1 -168 211 0
1 -168 -187 0
1 168 178 0
1 -211 -186 0
1 -211 -174 0
1 -211 -176 0
1 -211 -168 0
1 211 177 0
1 -211 -178 0
1 -171 -186 0
1 -171 -90 0
1 171 174 0
1 171 -176 0
1 171 173 0
1 171 187 0
1 171 177 0
1 171 178 0
1 -173 174 0
1 -173 -171 0
1 173 -176 0
1 173 93 0
1 173 187 0
1 -173 -177 0
1 173 178 0
1 -194 -192 0
1 -194 -190 0
1 -194 -141 0
1 -194 -188 0
1 194 150 0
1 194 195 0
1 -194 -191 0
1 194 -139 0
1 -194 193 0
1 -195 194 0
1 195 190 0
1 195 141 0
1 -195 188 0
1 195 -150 0
1 195 161 0
1 -195 191 0
1 195 189 0
1 -195 -140 0
1 -195 -139 0
1 195 -193 0
1 205 170 0
1 205 192 0
1 -205 -214 0
1 -205 -196 0
1 -205 -150 0
1 205 -204 0
1 205 191 0
1 205 189 0
1 -205 197 0
1 -205 -215 0
1 205 193 0
1 204 205 0
1 204 -192 0
1 -204 190 0
1 -204 -214 0
1 204 -196 0
1 -204 -150 0
1 -204 172 0
1 204 191 0
1 -204 -189 0
1 -204 -197 0
1 204 215 0
1 204 193 0
1 -189 209 0
1 -189 -194 0
1 -189 190 0
1 189 210 0
1 189 201 0
1 189 204 0
1 -189 -130 0
1 190 209 0
1 -190 199 0
1 -190 205 0
1 190 -194 0
1 190 -210 0
1 190 201 0
1 -190 189 0
1 191 205 0
1 191 192 0
1 -191 -204 0
1 191 195 0
1 -192 -205 0
1 -192 -194 0
1 192 -191 0
1 -192 133 0
1 192 204 0
1 -199 167 0
1 199 -144 0
1 199 -156 0
1 -199 190 0
1 199 214 0
1 -199 150 0
1 199 147 0
1 199 201 0
1 199 -159 0
1 199 -189 0
1 -199 197 0
1 -199 193 0
1 -201 -144 0
1 201 -199 0
1 201 -190 0
1 201 214 0
1 -201 -196 0
1 -201 150 0
1 -201 169 0
1 201 147 0
1 201 159 0
1 201 -189 0
1 201 -215 0
1 209 -203 0
1 -209 200 0
1 209 -156 0
1 209 214 0
1 209 -196 0
1 -209 -210 0
1 209 202 0
1 209 -159 0
1 209 -189 0
1 -209 -215 0
1 209 -178 0
1 -210 203 0
1 210 156 0
1 210 190 0
1 210 214 0
1 210 -196 0
1 -210 -176 0
1 210 -206 0
1 210 -202 0
1 210 -159 0
1 210 189 0
1 210 -197 0
1 210 -215 0
1 -215 209 0
1 215 -199 0
1 -215 205 0
1 -215 212 0
1 -215 -208 0
1 215 196 0
1 -215 210 0
1 215 201 0
1 196 -209 0
1 196 199 0
1 -196 -205 0
1 196 -212 0
1 -196 -188 0
1 -196 -208 0
1 -196 204 0
1 196 213 0
1 196 -215 0
1 197 -199 0
1 197 205 0
1 197 -214 0
1 197 -204 0
1 197 -140 0
1 214 -199 0
1 -214 141 0
1 214 210 0
1 214 201 0
1 214 204 0
1 214 -197 0
1 -208 -203 0
1 208 153 0
1 208 164 0
1 208 -174 0
1 -208 -196 0
1 -208 206 0
1 -208 202 0
1 208 159 0
1 208 -198 0
1 208 -165 0
1 208 -215 0
1 -213 -200 0
1 -213 164 0
1 -213 206 0
1 213 -202 0
1 -213 -187 0
1 -213 -215 0
1 212 -203 0
1 212 200 0
1 212 164 0
1 -212 186 0
1 -212 196 0
1 -212 -206 0
1 -212 202 0
1 212 165 0
1 212 -213 0
1 -200 144 0
1 200 208 0
1 200 210 0
1 -200 -202 0
1 -200 -213 0
1 -202 -209 0
1 -202 212 0
1 202 208 0
1 202 -210 0
1 -202 -213 0
1 -203 -209 0
1 203 -212 0
1 203 208 0
1 203 -210 0
1 -203 206 0
1 -203 -213 0
1 203 -193 0
1 -206 209 0
1 206 -203 0
1 -206 208 0
1 -206 150 0
1 -206 -210 0
1 -206 -213 0
